 vasp.5.2.12 26May11 complex
 executed on              unknown date 2013.05.10  10:44:55

 INCAR:
 POTCAR:   PAW_PBE Mg 05Jan2001
 POTCAR:   PAW_PBE Mg 05Jan2001
   VRHFIN =Mg: s2p0

   TITEL  = PAW_PBE Mg 05Jan2001
   POMASS =   24.305; ZVAL   =    2.000    mass and valenz
   ENMAX  =  210.012; ENMIN  =  157.509 eV
   QCUT   =   -3.929; QGAM   =    7.858    optimization parameters

   Description
     l     E      TYP  RCUT    TYP  RCUT
     0   .000     23  2.000
     0  2.000     23  2.000
     1   .000     23  2.000
     1  2.000     23  2.000
     2   .000     23  2.000

 PAW_PBE Mg 05Jan2001                   :

 POSCAR: Supercell by Yi Wang
  positions in direct lattice
 exchange correlation table for  LEXCH =        8
   RHO(1)=    0.500       N(1)  =     2000
   RHO(2)=  100.500       N(2)  =     4000

 ion  position               nearest neighbor table
   1  0.000  0.000  0.000-  15 3.18  16 3.18  13 3.18  14 3.18   9 3.18  10 3.18   3 3.19   3 3.19
                             7 3.19   7 3.19   5 3.19   5 3.19
   2  0.000  0.000  0.500-  15 3.18  16 3.18  13 3.18  14 3.18   9 3.18  10 3.18   4 3.19   4 3.19
                             8 3.19   8 3.19   6 3.19   6 3.19
   3  0.000  0.500  0.000-  13 3.18  14 3.18  15 3.18  16 3.18  11 3.18  12 3.18   1 3.19   1 3.19
                             5 3.19   5 3.19   7 3.19   7 3.19
   4  0.000  0.500  0.500-  13 3.18  14 3.18  15 3.18  16 3.18  11 3.18  12 3.18   2 3.19   2 3.19
                             6 3.19   6 3.19   8 3.19   8 3.19
   5  0.500  0.000  0.000-  11 3.18  12 3.18   9 3.18  10 3.18  13 3.18  14 3.18   7 3.19   7 3.19
                             3 3.19   3 3.19   1 3.19   1 3.19
   6  0.500  0.000  0.500-  11 3.18  12 3.18   9 3.18  10 3.18  13 3.18  14 3.18   8 3.19   8 3.19
                             4 3.19   4 3.19   2 3.19   2 3.19
   7  0.500  0.500  0.000-   9 3.18  10 3.18  11 3.18  12 3.18  15 3.18  16 3.18   5 3.19   5 3.19
                             1 3.19   1 3.19   3 3.19   3 3.19
   8  0.500  0.500  0.500-   9 3.18  10 3.18  11 3.18  12 3.18  15 3.18  16 3.18   6 3.19   6 3.19
                             2 3.19   2 3.19   4 3.19   4 3.19
   9  0.333  0.167  0.250-   7 3.18   8 3.18   5 3.18   6 3.18   1 3.18   2 3.18  11 3.19  11 3.19
                            15 3.19  15 3.19  13 3.19  13 3.19
  10  0.333  0.167  0.750-   7 3.18   8 3.18   5 3.18   6 3.18   1 3.18   2 3.18  12 3.19  12 3.19
                            16 3.19  16 3.19  14 3.19  14 3.19
  11  0.333  0.667  0.250-   5 3.18   6 3.18   7 3.18   8 3.18   3 3.18   4 3.18   9 3.19   9 3.19
                            13 3.19  13 3.19  15 3.19  15 3.19
  12  0.333  0.667  0.750-   5 3.18   6 3.18   7 3.18   8 3.18   3 3.18   4 3.18  10 3.19  10 3.19
                            14 3.19  14 3.19  16 3.19  16 3.19
  13  0.833  0.167  0.250-   3 3.18   4 3.18   1 3.18   2 3.18   5 3.18   6 3.18  15 3.19  15 3.19
                            11 3.19  11 3.19   9 3.19   9 3.19
  14  0.833  0.167  0.750-   3 3.18   4 3.18   1 3.18   2 3.18   5 3.18   6 3.18  16 3.19  16 3.19
                            12 3.19  12 3.19  10 3.19  10 3.19
  15  0.833  0.667  0.250-   1 3.18   2 3.18   3 3.18   4 3.18   7 3.18   8 3.18  13 3.19  13 3.19
                             9 3.19   9 3.19  11 3.19  11 3.19
  16  0.833  0.667  0.750-   1 3.18   2 3.18   3 3.18   4 3.18   7 3.18   8 3.18  14 3.19  14 3.19
                            10 3.19  10 3.19  12 3.19  12 3.19

  Warning from LATTYP: Monoclinic adjustement (A1->A3, A2->A1, A3->A2)!
  LATTYP: Found a hexagonal cell.
 ALAT       =     6.3763415617
 C/A-ratio  =     1.6267666811

  Lattice vectors:

 A1 = (  -3.1881600000,  -5.5220800000,   0.0000000000)
 A2 = (   6.3763400000,   0.0000000000,   0.0000000000)
 A3 = (   0.0000000000,   0.0000000000,  10.3728200000)
 Subroutine PRICEL returns following result:

  LATTYP: Found a hexagonal cell.
 ALAT       =     3.1881707809
 C/A-ratio  =     1.6267666811

[...]

 A1 = (   1.5940900000,  -2.7610400000,   0.0000000000)
 A2 = (  -3.1881700000,   0.0000000000,   0.0000000000)
 A3 = (   0.0000000000,   0.0000000000,  -5.1864100000)

   8 primitive cells build up your supercell.

Analysis of symmetry for initial positions (statically):

 Routine SETGRP: Setting up the symmetry group for a
 hexagonal supercell.

 Subroutine GETGRP returns: Found 24 space group operations
 (whereof 12 operations were pure point group operations)
 out of a pool of 24 trial point group operations.

The static configuration has the point symmetry D_3h.
 The point group associated with its full space group is D_6h.

Analysis of symmetry for dynamics (positions and initial velocities):

 Subroutine DYNSYM returns: Found 24 space group operations
 (whereof 12 operations were pure point group operations)
 out of a pool of 24 trial space group operations
 (whereof 12 operations were pure point group operations)
 and found also     8 'primitive' translations

The dynamic configuration has the point symmetry D_3h.
 The point group associated with its full space group is D_6h.

 KPOINTS: Magnesium

Automatic generation of k-mesh.

 Subroutine IBZKPT returns following result:

 Found      6 irreducible k-points:

 Following reciprocal coordinates:
            Coordinates               Weight
  0.000000  0.000000  0.000000      1.000000
  0.333333  0.000000  0.000000      6.000000
  0.333333  0.333333  0.000000      2.000000
  0.000000  0.000000  0.333333      2.000000
  0.333333  0.000000  0.333333     12.000000
  0.333333  0.333333  0.333333      4.000000

 Following cartesian coordinates:
            Coordinates               Weight
  0.000000  0.000000  0.000000      1.000000
  0.000000 -0.060364  0.000000      6.000000
 -0.052277 -0.090546  0.000000      2.000000
  0.000000  0.000000 -0.032135      2.000000
  0.000000 -0.060364 -0.032135     12.000000
 -0.052277 -0.090546 -0.032135      4.000000

 Subroutine IBZKPT_HF returns following result:

 Found     27 k-points in 1st BZ
 the following     27 k-points will be used (e.g. in the exchange kernel)
 Following reciprocal coordinates:   # in IRBZ
  0.000000  0.000000  0.000000       1 t-inv F
  0.333333  0.000000  0.000000       2 t-inv F
  0.333333  0.333333  0.000000       3 t-inv F
  0.000000  0.000000  0.333333       4 t-inv F
  0.333333  0.000000  0.333333       5 t-inv F
  0.333333  0.333333  0.333333       6 t-inv F
 -0.333333  0.333333  0.000000       2 t-inv F
  0.000000 -0.333333  0.000000       2 t-inv F
 -0.333333  0.000000  0.000000       2 t-inv F
  0.333333 -0.333333  0.000000       2 t-inv F
  0.000000  0.333333  0.000000       2 t-inv F
 -0.333333 -0.333333  0.000000       3 t-inv F
  0.000000  0.000000 -0.333333       4 t-inv F
 -0.333333  0.333333 -0.333333       5 t-inv F
  0.000000 -0.333333  0.333333       5 t-inv F
  0.333333  0.000000 -0.333333       5 t-inv F
 -0.333333  0.333333  0.333333       5 t-inv F
  0.000000 -0.333333 -0.333333       5 t-inv F
 -0.333333  0.000000 -0.333333       5 t-inv F
  0.333333 -0.333333  0.333333       5 t-inv F
  0.000000  0.333333 -0.333333       5 t-inv F
 -0.333333  0.000000  0.333333       5 t-inv F
  0.333333 -0.333333 -0.333333       5 t-inv F
  0.000000  0.333333  0.333333       5 t-inv F
 -0.666667  0.333333 -0.333333       6 t-inv F
 -0.333333 -0.333333  0.333333       6 t-inv F
 -0.333333  0.666667 -0.333333       6 t-inv F

 I would recommend the setting:
   dimension x,y,z NGX =    30 NGY =   30 NGZ =   49
 SYSTEM =  unknown system
 POSCAR =  Supercell by Yi Wang

 Startparameter for this run:
   NWRITE =      2    write-flag & timer
   PREC   = a         normal or accurate (medium, high low for compatibility)
   ISTART =      0    job   : 0-new  1-cont  2-samecut
   ICHARG =      2    charge: 1-file 2-atom 10-const
   ISPIN  =      1    spin polarized calculation?
   LNONCOLLINEAR =      F non collinear calculations
   LSORBIT =      F    spin-orbit coupling
   INIWAV =      1    electr: 0-lowe 1-rand  2-diag
   LASPH  =      F    aspherical Exc in radial PAW
   METAGGA=      F    non-selfconsistent MetaGGA calc.

 Electronic Relaxation 1
   ENCUT  =  210.0 eV  15.44 Ry    3.93 a.u.   7.53  7.53 12.26*2*pi/ulx,y,z
   ENINI  =  210.0     initial cutoff
   ENAUG  =  274.6 eV  augmentation charge cutoff
   NELM   =     60;   NELMIN=  2; NELMDL= -5     # of ELM steps
   EDIFF  = 0.1E-05   stopping-criterion for ELM
   LREAL  =      F    real-space projection
   LCOMPAT=      F    compatible to vasp.4.4
   GGA_COMPAT  = T    GGA compatible to vasp.4.4-vasp.4.6
   LMAXPAW     = -100 max onsite density
   LMAXMIX     =    2 max onsite mixed and CHGCAR
   VOSKOWN=      0    Vosko Wilk Nusair interpolation
   ROPT   =    0.00000
 Ionic relaxation
   EDIFFG = 0.1E-04   stopping-criterion for IOM
   NSW    =    229    number of steps for IOM
   NBLOCK =      1;   KBLOCK =      1    inner block; outer block
   IBRION =      6    ionic relax: 0-MD 1-quasi-New 2-CG
   NFREE  =      2    steps in history (QN), initial steepest desc. (CG)
   ISIF   =     -1    stress and relaxation
   IWAVPR =     11    prediction:  0-non 1-charg 2-wave 3-comb
   ISYM   =      2    0-nonsym 1-usesym 2-fastsym
   LCORR  =      T    Harris-Foulkes like correction to forces

   POTIM  = 0.5000    time-step for ionic-motion
   TEIN   =    0.0    initial temperature
   TEBEG  =    0.0;   TEEND  =   0.0 temperature during run
   SMASS  =  -3.00    Nose mass-parameter (am)
   estimated Nose-frequenzy (Omega)   =  0.10E-29 period in steps =****** mass=  -0.929E-27a.u.
   SCALEE = 1.0000    scale energy and forces
   NPACO  =    256;   APACO  = 16.0  distance and # of slots for P.C.
   PSTRESS=    0.0 pullay stress

  Mass of Ions in am
   POMASS =  24.31
  Ionic Valenz
   ZVAL   =   2.00
  Atomic Wigner-Seitz radii
  virtual crystal weights
   VCA    =   1.00
   NELECT =      32.0000    total number of electrons
   NUPDOWN=      -1.0000    fix difference up-down

 DOS related values:
   EMIN   =  10.00;   EMAX   =-10.00  energy-range for DOS
   EFERMI =   0.00
   ISMEAR =     1;   SIGMA  =   0.20  broadening in eV -4-tet -1-fermi 0-gaus

 Electronic relaxation 2 (details)
   IALGO  =     38    algorithm
   LDIAG  =      T    sub-space diagonalisation (order eigenvalues)
   LSUBROT=      T    optimize rotation matrix (better conditioning)
   TURBO    =      0    0=normal 1=particle mesh
   IRESTART =      0    0=no restart 2=restart with 2 vectors
   NREBOOT  =      0    no. of reboots
   NMIN     =      0    reboot dimension
   EREF     =   0.00    reference energy to select bands
   IMIX   =      4    mixing-type and parameters
     AMIX     =   0.40;   BMIX     =  1.00
     AMIX_MAG =   1.60;   BMIX_MAG =  1.00
     AMIN     =   0.10
     WC   =   100.;   INIMIX=   1;  MIXPRE=   1

 Intra band minimization:
   WEIMIN = 0.0010     energy-eigenvalue tresh-hold
   EBREAK =  0.10E-07  absolut break condition
   DEPER  =   0.30     relativ break condition

   TIME   =   0.40     timestep for ELM

  volume/ion in A,a.u.               =      22.83       154.04
  Fermi-wavevector in a.u.,A,eV,Ry     =   0.727112  1.374042  7.193284  0.528691
  Thomas-Fermi vector in A             =   1.818254

[...]
 11Y     0.000000    0.003752    0.000000    0.000000    0.003752    0.000000    0.000000    0.258775    0.361106    0.000000    0.258775   -0.361106    0.123917    0.044144   -0.180553    0.123917    0.044144    0.180553   -0.123917    0.044144   -0.180553   -0.123917    0.044144    0.180553    0.000000   -0.000080    0.000000    0.000000    0.035702    0.000000    0.000005   -2.885410    0.000000    0.000000    0.056928    0.000000    0.617091    1.068758    0.000000   -0.033974   -0.023143    0.000000   -0.617095    1.068758    0.000000    0.033974   -0.023143    0.000000
 11Z     0.000000    0.000000    0.003651    0.000000    0.000000    0.003651   -0.000001    0.361608    0.494251    0.000001   -0.361608    0.494251   -0.313161   -0.180804    0.494251    0.313161    0.180804    0.494251    0.313162   -0.180804    0.494251   -0.313162    0.180804    0.494251    0.000000    0.000000    0.028823    0.000000    0.000000   -0.144329    0.000000    0.000000   -2.711422    0.000000    0.000000    0.085134    0.000000    0.000000    0.028823    0.000000    0.000000   -0.144329    0.000000    0.000000    0.028823    0.000000    0.000000   -0.144329
 12X     0.003752    0.000000    0.000000    0.003752    0.000000    0.000000   -0.027400    0.000000    0.000001   -0.027400    0.000000   -0.000001    0.187230    0.123917    0.312726    0.187230    0.123917   -0.312726    0.187231   -0.123917   -0.312727    0.187231   -0.123917    0.312727   -0.042757    0.000000    0.000000    1.425033    0.000000    0.000000    0.056928    0.000000    0.000000   -2.885402    0.000005    0.000000    0.016087   -0.033974    0.000000    0.356196    0.617091    0.000000    0.016087    0.033974    0.000000    0.356201   -0.617095    0.000000
 12Y     0.000000    0.003752    0.000000    0.000000    0.003752    0.000000    0.000000    0.258775   -0.361106    0.000000    0.258775    0.361106    0.123917    0.044144    0.180553    0.123917    0.044144   -0.180553   -0.123917    0.044144    0.180553   -0.123917    0.044144   -0.180553    0.000000    0.035702    0.000000    0.000000   -0.000080    0.000000    0.000000    0.056928    0.000000    0.000005   -2.885410    0.000000   -0.033974   -0.023143    0.000000    0.617091    1.068758    0.000000    0.033974   -0.023143    0.000000   -0.617095    1.068758    0.000000
 12Z     0.000000    0.000000    0.003651    0.000000    0.000000    0.003651    0.000001   -0.361608    0.494251   -0.000001    0.361608    0.494251    0.313161    0.180804    0.494251   -0.313161   -0.180804    0.494251   -0.313162    0.180804    0.494251    0.313162   -0.180804    0.494251    0.000000    0.000000   -0.144329    0.000000    0.000000    0.028823    0.000000    0.000000    0.085134    0.000000    0.000000   -2.711422    0.000000    0.000000   -0.144329    0.000000    0.000000    0.028823    0.000000    0.000000   -0.144329    0.000000    0.000000    0.028823
 13X     0.187231   -0.123917    0.312727    0.187231   -0.123917   -0.312727    0.187230    0.123917   -0.312726    0.187230    0.123917    0.312726   -0.027400    0.000000   -0.000001   -0.027400    0.000000    0.000001    0.003752    0.000000    0.000000    0.003752    0.000000    0.000000    0.356201   -0.617095    0.000000    0.016087    0.033974    0.000000    0.356196    0.617091    0.000000    0.016087   -0.033974    0.000000   -2.885402    0.000005    0.000000    0.056928    0.000000    0.000000    1.425033    0.000000    0.000000   -0.042757    0.000000    0.000000
 13Y    -0.123917    0.044144   -0.180553   -0.123917    0.044144    0.180553    0.123917    0.044144   -0.180553    0.123917    0.044144    0.180553    0.000000    0.258775    0.361106    0.000000    0.258775   -0.361106    0.000000    0.003752    0.000000    0.000000    0.003752    0.000000   -0.617095    1.068758    0.000000    0.033974   -0.023143    0.000000    0.617091    1.068758    0.000000   -0.033974   -0.023143    0.000000    0.000005   -2.885410    0.000000    0.000000    0.056928    0.000000    0.000000   -0.000080    0.000000    0.000000    0.035702    0.000000
 13Z     0.313162   -0.180804    0.494251   -0.313162    0.180804    0.494251   -0.313161   -0.180804    0.494251    0.313161    0.180804    0.494251   -0.000001    0.361608    0.494251    0.000001   -0.361608    0.494251    0.000000    0.000000    0.003651    0.000000    0.000000    0.003651    0.000000    0.000000    0.028823    0.000000    0.000000   -0.144329    0.000000    0.000000    0.028823    0.000000    0.000000   -0.144329    0.000000    0.000000   -2.711422    0.000000    0.000000    0.085134    0.000000    0.000000    0.028823    0.000000    0.000000   -0.144329
 14X     0.187231   -0.123917   -0.312727    0.187231   -0.123917    0.312727    0.187230    0.123917    0.312726    0.187230    0.123917   -0.312726   -0.027400    0.000000    0.000001   -0.027400    0.000000   -0.000001    0.003752    0.000000    0.000000    0.003752    0.000000    0.000000    0.016087    0.033974    0.000000    0.356201   -0.617095    0.000000    0.016087   -0.033974    0.000000    0.356196    0.617091    0.000000    0.056928    0.000000    0.000000   -2.885402    0.000005    0.000000   -0.042757    0.000000    0.000000    1.425033    0.000000    0.000000
 14Y    -0.123917    0.044144    0.180553   -0.123917    0.044144   -0.180553    0.123917    0.044144    0.180553    0.123917    0.044144   -0.180553    0.000000    0.258775   -0.361106    0.000000    0.258775    0.361106    0.000000    0.003752    0.000000    0.000000    0.003752    0.000000    0.033974   -0.023143    0.000000   -0.617095    1.068758    0.000000   -0.033974   -0.023143    0.000000    0.617091    1.068758    0.000000    0.000000    0.056928    0.000000    0.000005   -2.885410    0.000000    0.000000    0.035702    0.000000    0.000000   -0.000080    0.000000
 14Z    -0.313162    0.180804    0.494251    0.313162   -0.180804    0.494251    0.313161    0.180804    0.494251   -0.313161   -0.180804    0.494251    0.000001   -0.361608    0.494251   -0.000001    0.361608    0.494251    0.000000    0.000000    0.003651    0.000000    0.000000    0.003651    0.000000    0.000000   -0.144329    0.000000    0.000000    0.028823    0.000000    0.000000   -0.144329    0.000000    0.000000    0.028823    0.000000    0.000000    0.085134    0.000000    0.000000   -2.711422    0.000000    0.000000   -0.144329    0.000000    0.000000    0.028823
 15X     0.187230    0.123917   -0.312726    0.187230    0.123917    0.312726    0.187231   -0.123917    0.312727    0.187231   -0.123917   -0.312727    0.003752    0.000000    0.000000    0.003752    0.000000    0.000000   -0.027400    0.000000   -0.000001   -0.027400    0.000000    0.000001    0.356196    0.617091    0.000000    0.016087   -0.033974    0.000000    0.356201   -0.617095    0.000000    0.016087    0.033974    0.000000    1.425033    0.000000    0.000000   -0.042757    0.000000    0.000000   -2.885402    0.000005    0.000000    0.056928    0.000000    0.000000
 15Y     0.123917    0.044144   -0.180553    0.123917    0.044144    0.180553   -0.123917    0.044144   -0.180553   -0.123917    0.044144    0.180553    0.000000    0.003752    0.000000    0.000000    0.003752    0.000000    0.000000    0.258775    0.361106    0.000000    0.258775   -0.361106    0.617091    1.068758    0.000000   -0.033974   -0.023143    0.000000   -0.617095    1.068758    0.000000    0.033974   -0.023143    0.000000    0.000000   -0.000080    0.000000    0.000000    0.035702    0.000000    0.000005   -2.885410    0.000000    0.000000    0.056928    0.000000
 15Z    -0.313161   -0.180804    0.494251    0.313161    0.180804    0.494251    0.313162   -0.180804    0.494251   -0.313162    0.180804    0.494251    0.000000    0.000000    0.003651    0.000000    0.000000    0.003651   -0.000001    0.361608    0.494251    0.000001   -0.361608    0.494251    0.000000    0.000000    0.028823    0.000000    0.000000   -0.144329    0.000000    0.000000    0.028823    0.000000    0.000000   -0.144329    0.000000    0.000000    0.028823    0.000000    0.000000   -0.144329    0.000000    0.000000   -2.711422    0.000000    0.000000    0.085134
 16X     0.187230    0.123917    0.312726    0.187230    0.123917   -0.312726    0.187231   -0.123917   -0.312727    0.187231   -0.123917    0.312727    0.003752    0.000000    0.000000    0.003752    0.000000    0.000000   -0.027400    0.000000    0.000001   -0.027400    0.000000   -0.000001    0.016087   -0.033974    0.000000    0.356196    0.617091    0.000000    0.016087    0.033974    0.000000    0.356201   -0.617095    0.000000   -0.042757    0.000000    0.000000    1.425033    0.000000    0.000000    0.056928    0.000000    0.000000   -2.885402    0.000005    0.000000
 16Y     0.123917    0.044144    0.180553    0.123917    0.044144   -0.180553   -0.123917    0.044144    0.180553   -0.123917    0.044144   -0.180553    0.000000    0.003752    0.000000    0.000000    0.003752    0.000000    0.000000    0.258775   -0.361106    0.000000    0.258775    0.361106   -0.033974   -0.023143    0.000000    0.617091    1.068758    0.000000    0.033974   -0.023143    0.000000   -0.617095    1.068758    0.000000    0.000000    0.035702    0.000000    0.000000   -0.000080    0.000000    0.000000    0.056928    0.000000    0.000005   -2.885410    0.000000
 16Z     0.313161    0.180804    0.494251   -0.313161   -0.180804    0.494251   -0.313162    0.180804    0.494251    0.313162   -0.180804    0.494251    0.000000    0.000000    0.003651    0.000000    0.000000    0.003651    0.000001   -0.361608    0.494251   -0.000001    0.361608    0.494251    0.000000    0.000000   -0.144329    0.000000    0.000000    0.028823    0.000000    0.000000   -0.144329    0.000000    0.000000    0.028823    0.000000    0.000000   -0.144329    0.000000    0.000000    0.028823    0.000000    0.000000    0.085134    0.000000    0.000000   -2.711422

 Eigenvectors and eigenvalues of the dynamical matrix

   1 f  =    7.732167 THz    48.582639 2PiTHz  257.917324 cm-1    31.977684 meV
             X         Y         Z           dx          dy          dz
      0.000000  0.000000  0.000000     0.000000    0.000000   -0.250000
      0.000000  0.000000 -5.186410     0.000000    0.000000   -0.250000
     -3.188170  0.000000  0.000000     0.000000    0.000000   -0.250000
     -3.188170  0.000000 -5.186410     0.000000    0.000000   -0.250000
      1.594090 -2.761040  0.000000     0.000000    0.000000   -0.250000
      1.594090 -2.761040 -5.186410     0.000000    0.000000   -0.250000
     -1.594080 -2.761040  0.000000     0.000000    0.000000   -0.250000
     -1.594080 -2.761040 -5.186410     0.000000    0.000000   -0.250000
      0.000003 -1.840693 -2.593205     0.000000    0.000000    0.250000
      0.000003 -1.840693 -7.779615     0.000000    0.000000    0.250000
     -3.188167 -1.840693 -2.593205     0.000000    0.000000    0.250000
     -3.188167 -1.840693 -7.779615     0.000000    0.000000    0.250000
      1.594093 -4.601733 -2.593205     0.000000    0.000000    0.250000
      1.594093 -4.601733 -7.779615     0.000000    0.000000    0.250000
     -1.594077 -4.601733 -2.593205     0.000000    0.000000    0.250000
     -1.594077 -4.601733 -7.779615     0.000000    0.000000    0.250000

[...]

  47 f  =    0.000000 THz     0.000001 2PiTHz    0.000006 cm-1     0.000001 meV
             X         Y         Z           dx          dy          dz
      0.000000  0.000000  0.000000    -0.017536    0.000892    0.249383
      0.000000  0.000000 -5.186410    -0.017536    0.000892    0.249383
     -3.188170  0.000000  0.000000    -0.017536    0.000892    0.249383
     -3.188170  0.000000 -5.186410    -0.017536    0.000892    0.249383
      1.594090 -2.761040  0.000000    -0.017536    0.000892    0.249383
      1.594090 -2.761040 -5.186410    -0.017536    0.000892    0.249383
     -1.594080 -2.761040  0.000000    -0.017536    0.000892    0.249383
     -1.594080 -2.761040 -5.186410    -0.017536    0.000892    0.249383
      0.000003 -1.840693 -2.593205    -0.017536    0.000892    0.249383
      0.000003 -1.840693 -7.779615    -0.017536    0.000892    0.249383
     -3.188167 -1.840693 -2.593205    -0.017536    0.000892    0.249383
     -3.188167 -1.840693 -7.779615    -0.017536    0.000892    0.249383
      1.594093 -4.601733 -2.593205    -0.017536    0.000892    0.249383
      1.594093 -4.601733 -7.779615    -0.017536    0.000892    0.249383
     -1.594077 -4.601733 -2.593205    -0.017536    0.000892    0.249383
     -1.594077 -4.601733 -7.779615    -0.017536    0.000892    0.249383

  48 f/i=    0.000000 THz     0.000001 2PiTHz    0.000004 cm-1     0.000001 meV
             X         Y         Z           dx          dy          dz
      0.000000  0.000000  0.000000    -0.007110   -0.249899    0.000394
      0.000000  0.000000 -5.186410    -0.007110   -0.249899    0.000394
     -3.188170  0.000000  0.000000    -0.007110   -0.249899    0.000394
     -3.188170  0.000000 -5.186410    -0.007110   -0.249899    0.000394
      1.594090 -2.761040  0.000000    -0.007110   -0.249899    0.000394
      1.594090 -2.761040 -5.186410    -0.007110   -0.249899    0.000394
     -1.594080 -2.761040  0.000000    -0.007110   -0.249899    0.000394
     -1.594080 -2.761040 -5.186410    -0.007110   -0.249899    0.000394
      0.000003 -1.840693 -2.593205    -0.007110   -0.249899    0.000394
      0.000003 -1.840693 -7.779615    -0.007110   -0.249899    0.000394
     -3.188167 -1.840693 -2.593205    -0.007110   -0.249899    0.000394
     -3.188167 -1.840693 -7.779615    -0.007110   -0.249899    0.000394
      1.594093 -4.601733 -2.593205    -0.007110   -0.249899    0.000394
      1.594093 -4.601733 -7.779615    -0.007110   -0.249899    0.000394
     -1.594077 -4.601733 -2.593205    -0.007110   -0.249899    0.000394
     -1.594077 -4.601733 -7.779615    -0.007110   -0.249899    0.000394

  Warning from LATTYP: Monoclinic adjustement (A1->A3, A2->A1, A3->A2)!
  LATTYP: Found a hexagonal cell.
 ALAT       =     6.3763415617
 C/A-ratio  =     1.6267666811

[...]

 A1 = (  -3.1881600000,  -5.5220800000,   0.0000000000)
 A2 = (   6.3763400000,   0.0000000000,   0.0000000000)
 A3 = (   0.0000000000,   0.0000000000,  10.3728200000)
 Subroutine PRICEL returns following result:

  LATTYP: Found a hexagonal cell.
 ALAT       =     3.1881707809
 C/A-ratio  =     1.6267666811

  Lattice vectors:

 A1 = (   1.5940900000,  -2.7610400000,   0.0000000000)
 A2 = (  -3.1881700000,   0.0000000000,   0.0000000000)
 A3 = (   0.0000000000,   0.0000000000,  -5.1864100000)

   8 primitive cells build up your supercell.

Analysis of symmetry for initial positions (statically):

 Routine SETGRP: Setting up the symmetry group for a
 hexagonal supercell.

 Subroutine GETGRP returns: Found 24 space group operations
 (whereof 12 operations were pure point group operations)
 out of a pool of 24 trial point group operations.

The static configuration has the point symmetry D_3h.
 The point group associated with its full space group is D_6h.

Analysis of symmetry for dynamics (positions and initial velocities):

 Subroutine DYNSYM returns: Found 24 space group operations
 (whereof 12 operations were pure point group operations)
 out of a pool of 24 trial space group operations
 (whereof 12 operations were pure point group operations)
 and found also     8 'primitive' translations

The dynamic configuration has the point symmetry D_3h.
 The point group associated with its full space group is D_6h.

 KPOINTS: Magnesium

Automatic generation of k-mesh.

 Subroutine IBZKPT returns following result:

 Found      6 irreducible k-points:

 Following reciprocal coordinates:
            Coordinates               Weight
  0.000000  0.000000  0.000000      1.000000
  0.333333  0.000000  0.000000      6.000000
  0.333333  0.333333  0.000000      2.000000
  0.000000  0.000000  0.333333      2.000000
  0.333333  0.000000  0.333333     12.000000
  0.333333  0.333333  0.333333      4.000000

 Following cartesian coordinates:
            Coordinates               Weight
  0.000000  0.000000  0.000000      1.000000
  0.000000 -0.060364  0.000000      6.000000
 -0.052277 -0.090546  0.000000      2.000000
  0.000000  0.000000 -0.032135      2.000000
  0.000000 -0.060364 -0.032135     12.000000
 -0.052277 -0.090546 -0.032135      4.000000

 writing wavefunctions