 vasp.5.2.12 26May11 complex
 executed on              unknown date 2013.05.12  12:57:44

 INCAR:
 POTCAR:   PAW Mg 02Mar1998
 POTCAR:   PAW O 31May2000
 POTCAR:   PAW Mg 02Mar1998
   VRHFIN =Mg: s2p0

   TITEL  = PAW Mg 02Mar1998
   POMASS =   24.305; ZVAL   =    2.000    mass and valenz
   ENMAX  =  210.674; ENMIN  =  158.006 eV
   QCUT   =   -3.935; QGAM   =    7.870    optimization parameters

   Description
     l     E      TYP  RCUT    TYP  RCUT
     0   .000     23  2.000
     0  2.000     23  2.000
     1   .000     23  2.000
     1  2.000     23  2.000
     2   .000     23  2.000

 POTCAR:   PAW O 31May2000
   VRHFIN =O: s2p4

   TITEL  = PAW O 31May2000
   POMASS =   16.000; ZVAL   =    6.000    mass and valenz
   ENMAX  =  400.000; ENMIN  =  300.000 eV
   QCUT   =   -5.518; QGAM   =   11.037    optimization parameters

   Description
     l     E      TYP  RCUT    TYP  RCUT
     0   .000     23  1.200
     0  -.700     23  1.200
     1   .000     23  1.520
     1   .600     23  1.520
     2   .000      7  1.500

 PAW Mg 02Mar1998                       :
 PAW O 31May2000                        :

 POSCAR: Supercell by Yi Wang
  positions in direct lattice
 exchange correlation table for  LEXCH =        2
   RHO(1)=    0.500       N(1)  =     2000
   RHO(2)=  100.500       N(2)  =     4000

 ion  position               nearest neighbor table
   1  0.000  0.000  0.000-  10 2.11  11 2.11  12 2.11  13 2.11  14 2.11  15 2.11   2 2.98   3 2.98
                             5 2.98   2 2.98   4 2.98   6 2.98   3 2.98   4 2.98   7 2.98   5 2.98
   2  0.000  0.000  0.500-   9 2.11  11 2.11  12 2.11  13 2.11  14 2.11  16 2.11   1 2.98   4 2.98
                             6 2.98   1 2.98   3 2.98   5 2.98   3 2.98   4 2.98   8 2.98   5 2.98
   3  0.000  0.500  0.000-   9 2.11  10 2.11  12 2.11  13 2.11  15 2.11  16 2.11   1 2.98   4 2.98
                             7 2.98   2 2.98   4 2.98   8 2.98   1 2.98   2 2.98   5 2.98   5 2.98
   4  0.000  0.500  0.500-   9 2.11  10 2.11  11 2.11  14 2.11  15 2.11  16 2.11   2 2.98   3 2.98
                             8 2.98   1 2.98   3 2.98   7 2.98   1 2.98   2 2.98   6 2.98   6 2.98
   5  0.500  0.000  0.000-   9 2.11  10 2.11  11 2.11  14 2.11  15 2.11  16 2.11   1 2.98   6 2.98
                             7 2.98   2 2.98   6 2.98   8 2.98   3 2.98   7 2.98   8 2.98   1 2.98
   6  0.500  0.000  0.500-   9 2.11  10 2.11  12 2.11  13 2.11  15 2.11  16 2.11   2 2.98   5 2.98
                             8 2.98   1 2.98   5 2.98   7 2.98   4 2.98   7 2.98   8 2.98   1 2.98
   7  0.500  0.500  0.000-   9 2.11  11 2.11  12 2.11  13 2.11  14 2.11  16 2.11   3 2.98   5 2.98
                             8 2.98   4 2.98   6 2.98   8 2.98   1 2.98   5 2.98   6 2.98   1 2.98
   8  0.500  0.500  0.500-  10 2.11  11 2.11  12 2.11  13 2.11  14 2.11  15 2.11   4 2.98   6 2.98
                             7 2.98   3 2.98   5 2.98   7 2.98   2 2.98   5 2.98   6 2.98   2 2.98
   9  0.250  0.250  0.250-   2 2.11   3 2.11   4 2.11   5 2.11   6 2.11   7 2.11
  10  0.250  0.250  0.750-   1 2.11   3 2.11   4 2.11   5 2.11   6 2.11   8 2.11
  11  0.250  0.750  0.250-   1 2.11   2 2.11   4 2.11   5 2.11   7 2.11   8 2.11
  12  0.250  0.750  0.750-   1 2.11   2 2.11   3 2.11   6 2.11   7 2.11   8 2.11
  13  0.750  0.250  0.250-   1 2.11   2 2.11   3 2.11   6 2.11   7 2.11   8 2.11
  14  0.750  0.250  0.750-   1 2.11   2 2.11   4 2.11   5 2.11   7 2.11   8 2.11
  15  0.750  0.750  0.250-   1 2.11   3 2.11   4 2.11   5 2.11   6 2.11   8 2.11
  16  0.750  0.750  0.750-   2 2.11   3 2.11   4 2.11   5 2.11   6 2.11   7 2.11

  LATTYP: Found a face centered cubic cell.
 ALAT       =     8.4240000000

  Lattice vectors:

 A1 = (   0.0000000000,   4.2120000000,   4.2120000000)
 A2 = (   4.2120000000,   0.0000000000,   4.2120000000)
 A3 = (   4.2120000000,   4.2120000000,   0.0000000000)
 Subroutine PRICEL returns following result:

[...]

 A1 = (   0.0000000000,   2.1060000000,   2.1060000000)
 A2 = (   2.1060000000,   0.0000000000,   2.1060000000)
 A3 = (   2.1060000000,   2.1060000000,   0.0000000000)

   8 primitive cells build up your supercell.

Analysis of symmetry for initial positions (statically):

 Routine SETGRP: Setting up the symmetry group for a
 face centered cubic supercell.

 Subroutine GETGRP returns: Found 48 space group operations
 (whereof 48 operations were pure point group operations)
 out of a pool of 48 trial point group operations.

The static configuration has the point symmetry O_h .

Analysis of symmetry for dynamics (positions and initial velocities):

 Subroutine DYNSYM returns: Found 48 space group operations
 (whereof 48 operations were pure point group operations)
 out of a pool of 48 trial space group operations
 (whereof 48 operations were pure point group operations)
 and found also     8 'primitive' translations

The dynamic configuration has the point symmetry O_h .

 KPOINTS: Magnesium Oxide

Automatic generation of k-mesh.

 Subroutine IBZKPT returns following result:

 Found      4 irreducible k-points:

 Following reciprocal coordinates:
            Coordinates               Weight
  0.000000  0.000000  0.000000      1.000000
  0.333333  0.000000  0.000000      8.000000
  0.333333  0.333333  0.000000      6.000000
 -0.333333  0.333333  0.000000     12.000000

 Following cartesian coordinates:
            Coordinates               Weight
  0.000000  0.000000  0.000000      1.000000
 -0.039569  0.039569  0.039569      8.000000
  0.000000  0.000000  0.079139      6.000000
  0.079139 -0.079139  0.000000     12.000000

 TETIRR: Found      7 inequivalent tetrahedra from      162

 Subroutine IBZKPT_HF returns following result:

 Found     27 k-points in 1st BZ
 the following     27 k-points will be used (e.g. in the exchange kernel)
 Following reciprocal coordinates:   # in IRBZ
  0.000000  0.000000  0.000000       1 t-inv F
  0.333333  0.000000  0.000000       2 t-inv F
  0.333333  0.333333  0.000000       3 t-inv F
 -0.333333  0.333333  0.000000       4 t-inv F
 -0.333333  0.000000  0.000000       2 t-inv F
  0.000000  0.333333  0.000000       2 t-inv F
  0.000000 -0.333333  0.000000       2 t-inv F
  0.000000  0.000000  0.333333       2 t-inv F
  0.000000  0.000000 -0.333333       2 t-inv F
  0.333333  0.333333  0.333333       2 t-inv F
 -0.333333 -0.333333 -0.333333       2 t-inv F
 -0.333333 -0.333333  0.000000       3 t-inv F
  0.000000  0.333333  0.333333       3 t-inv F
  0.000000 -0.333333 -0.333333       3 t-inv F
  0.333333  0.000000  0.333333       3 t-inv F
 -0.333333  0.000000 -0.333333       3 t-inv F
  0.333333 -0.333333  0.000000       4 t-inv F
  0.000000 -0.333333  0.333333       4 t-inv F
  0.000000  0.333333 -0.333333       4 t-inv F
  0.333333  0.000000 -0.333333       4 t-inv F
 -0.333333  0.000000  0.333333       4 t-inv F
  0.333333  0.333333  0.666667       4 t-inv F
 -0.333333 -0.333333 -0.666667       4 t-inv F
 -0.333333 -0.666667 -0.333333       4 t-inv F
  0.333333  0.666667  0.333333       4 t-inv F
 -0.666667 -0.333333 -0.333333       4 t-inv F
  0.666667  0.333333  0.333333       4 t-inv F

 I would recommend the setting:
   dimension x,y,z NGX =    39 NGY =   39 NGZ =   39
 SYSTEM =  unknown system
 POSCAR =  Supercell by Yi Wang

 Startparameter for this run:
   NWRITE =      2    write-flag & timer
   PREC   = a         normal or accurate (medium, high low for compatibility)
   ISTART =      0    job   : 0-new  1-cont  2-samecut
   ICHARG =      2    charge: 1-file 2-atom 10-const
   ISPIN  =      1    spin polarized calculation?
   LNONCOLLINEAR =      F non collinear calculations
   LSORBIT =      F    spin-orbit coupling
   INIWAV =      1    electr: 0-lowe 1-rand  2-diag
   LASPH  =      F    aspherical Exc in radial PAW
   METAGGA=      F    non-selfconsistent MetaGGA calc.

 Electronic Relaxation 1
   ENCUT  =  400.0 eV  29.40 Ry    5.42 a.u.   9.71  9.71  9.71*2*pi/ulx,y,z
   ENINI  =  400.0     initial cutoff
   ENAUG  =  605.4 eV  augmentation charge cutoff
   NELM   =     60;   NELMIN=  2; NELMDL= -5     # of ELM steps
   EDIFF  = 0.1E-05   stopping-criterion for ELM
   LREAL  =      F    real-space projection
   LCOMPAT=      F    compatible to vasp.4.4
   GGA_COMPAT  = T    GGA compatible to vasp.4.4-vasp.4.6
   LMAXPAW     = -100 max onsite density
   LMAXMIX     =    2 max onsite mixed and CHGCAR
   VOSKOWN=      0    Vosko Wilk Nusair interpolation
   ROPT   =    0.00000   0.00000
 Ionic relaxation
   EDIFFG = 0.1E-04   stopping-criterion for IOM
   NSW    =    229    number of steps for IOM
   NBLOCK =      1;   KBLOCK =      1    inner block; outer block
   IBRION =      6    ionic relax: 0-MD 1-quasi-New 2-CG
   NFREE  =      2    steps in history (QN), initial steepest desc. (CG)
   ISIF   =      0    stress and relaxation
   IWAVPR =     11    prediction:  0-non 1-charg 2-wave 3-comb
   ISYM   =      2    0-nonsym 1-usesym 2-fastsym
   LCORR  =      T    Harris-Foulkes like correction to forces

   POTIM  = 0.5000    time-step for ionic-motion
   TEIN   =    0.0    initial temperature
   TEBEG  =    0.0;   TEEND  =   0.0 temperature during run
   SMASS  =  -3.00    Nose mass-parameter (am)
   estimated Nose-frequenzy (Omega)   =  0.10E-29 period in steps =****** mass=  -0.811E-27a.u.
   SCALEE = 1.0000    scale energy and forces
   NPACO  =    256;   APACO  = 16.0  distance and # of slots for P.C.
   PSTRESS=    0.0 pullay stress

  Mass of Ions in am
   POMASS =  24.31 16.00
  Ionic Valenz
   ZVAL   =   2.00  6.00
  Atomic Wigner-Seitz radii
  virtual crystal weights
   VCA    =   1.00  1.00
   NELECT =      64.0000    total number of electrons
   NUPDOWN=      -1.0000    fix difference up-down

 DOS related values:
   EMIN   =  10.00;   EMAX   =-10.00  energy-range for DOS
   EFERMI =   0.00
   ISMEAR =    -5;   SIGMA  =   0.20  broadening in eV -4-tet -1-fermi 0-gaus

 Electronic relaxation 2 (details)
   IALGO  =     38    algorithm
   LDIAG  =      T    sub-space diagonalisation (order eigenvalues)
   LSUBROT=      T    optimize rotation matrix (better conditioning)
   TURBO    =      0    0=normal 1=particle mesh
   IRESTART =      0    0=no restart 2=restart with 2 vectors
   NREBOOT  =      0    no. of reboots
   NMIN     =      0    reboot dimension
   EREF     =   0.00    reference energy to select bands
   IMIX   =      4    mixing-type and parameters
     AMIX     =   0.40;   BMIX     =  1.00
     AMIX_MAG =   1.60;   BMIX_MAG =  1.00
     AMIN     =   0.10
     WC   =   100.;   INIMIX=   1;  MIXPRE=   1

 Intra band minimization:
   WEIMIN = 0.0010     energy-eigenvalue tresh-hold
   EBREAK =  0.61E-08  absolut break condition
   DEPER  =   0.30     relativ break condition

   TIME   =   0.40     timestep for ELM

  volume/ion in A,a.u.               =       9.34        63.03
  Fermi-wavevector in a.u.,A,eV,Ry     =   1.233966  2.331857 20.717205  1.522672
  Thomas-Fermi vector in A             =   2.368675

 Write flags
   LWAVE  =      T    write WAVECAR
   LCHARG =      T    write CHGCAR
   LVTOT  =      F    write LOCPOT, total local potential
   LVHAR  =      F    write LOCPOT, Hartree potential only
   LELF   =      F    write electronic localiz. function (ELF)
[...]
 11Z     0.000000    0.000000    0.787562    0.000000    0.000000    0.787562    0.000000    0.000000   -0.149139    0.000000    0.000000    1.053767    0.000000    0.000000    1.053767    0.000000    0.000000   -0.149139    0.000000    0.000000    0.787562    0.000000    0.000000    0.787562    1.794425    0.000000    1.429083    0.000000   -1.794425    1.429083    0.000000    0.000000  -10.313521    0.000000    0.000000   -0.265443    0.000000    0.000000   -0.265443    0.000000    0.000000    0.145634    0.000000    1.794425    1.429083   -1.794425    0.000000    1.429083
 12X     1.053767    0.000000    0.000000    0.787562    0.000000    0.000000    0.787562    0.000000    0.000000   -0.149139    0.000000    0.000000   -0.149139    0.000000    0.000000    0.787562    0.000000    0.000000    0.787562    0.000000    0.000000    1.053767    0.000000    0.000000   -0.265443    0.000000    0.000000    1.429083    0.000000    1.794425    1.429083    1.794425    0.000000  -10.313521    0.000000    0.000000    0.145634    0.000000    0.000000    1.429083   -1.794425    0.000000    1.429083    0.000000   -1.794425   -0.265443    0.000000    0.000000
 12Y     0.000000    0.787562    0.000000    0.000000    1.053767    0.000000    0.000000    0.787562    0.000000    0.000000   -0.149139    0.000000    0.000000   -0.149139    0.000000    0.000000    0.787562    0.000000    0.000000    1.053767    0.000000    0.000000    0.787562    0.000000    0.000000    1.429083   -1.794425    0.000000   -0.265443    0.000000    1.794425    1.429083    0.000000    0.000000  -10.313521    0.000000    0.000000    0.145634    0.000000   -1.794425    1.429083    0.000000    0.000000   -0.265443    0.000000    0.000000    1.429083    1.794425
 12Z     0.000000    0.000000    0.787562    0.000000    0.000000    0.787562    0.000000    0.000000    1.053767    0.000000    0.000000   -0.149139    0.000000    0.000000   -0.149139    0.000000    0.000000    1.053767    0.000000    0.000000    0.787562    0.000000    0.000000    0.787562    0.000000   -1.794425    1.429083    1.794425    0.000000    1.429083    0.000000    0.000000   -0.265443    0.000000    0.000000  -10.313521    0.000000    0.000000    0.145634    0.000000    0.000000   -0.265443   -1.794425    0.000000    1.429083    0.000000    1.794425    1.429083
 13X     1.053767    0.000000    0.000000    0.787562    0.000000    0.000000    0.787562    0.000000    0.000000   -0.149139    0.000000    0.000000   -0.149139    0.000000    0.000000    0.787562    0.000000    0.000000    0.787562    0.000000    0.000000    1.053767    0.000000    0.000000   -0.265443    0.000000    0.000000    1.429083    0.000000   -1.794425    1.429083   -1.794425    0.000000    0.145634    0.000000    0.000000  -10.313521    0.000000    0.000000    1.429083    1.794425    0.000000    1.429083    0.000000    1.794425   -0.265443    0.000000    0.000000
 13Y     0.000000    0.787562    0.000000    0.000000    1.053767    0.000000    0.000000    0.787562    0.000000    0.000000   -0.149139    0.000000    0.000000   -0.149139    0.000000    0.000000    0.787562    0.000000    0.000000    1.053767    0.000000    0.000000    0.787562    0.000000    0.000000    1.429083    1.794425    0.000000   -0.265443    0.000000   -1.794425    1.429083    0.000000    0.000000    0.145634    0.000000    0.000000  -10.313521    0.000000    1.794425    1.429083    0.000000    0.000000   -0.265443    0.000000    0.000000    1.429083   -1.794425
 13Z     0.000000    0.000000    0.787562    0.000000    0.000000    0.787562    0.000000    0.000000    1.053767    0.000000    0.000000   -0.149139    0.000000    0.000000   -0.149139    0.000000    0.000000    1.053767    0.000000    0.000000    0.787562    0.000000    0.000000    0.787562    0.000000    1.794425    1.429083   -1.794425    0.000000    1.429083    0.000000    0.000000   -0.265443    0.000000    0.000000    0.145634    0.000000    0.000000  -10.313521    0.000000    0.000000   -0.265443    1.794425    0.000000    1.429083    0.000000   -1.794425    1.429083
 14X     0.787562    0.000000    0.000000    1.053767    0.000000    0.000000   -0.149139    0.000000    0.000000    0.787562    0.000000    0.000000    0.787562    0.000000    0.000000   -0.149139    0.000000    0.000000    1.053767    0.000000    0.000000    0.787562    0.000000    0.000000    1.429083    0.000000   -1.794425   -0.265443    0.000000    0.000000    0.145634    0.000000    0.000000    1.429083   -1.794425    0.000000    1.429083    1.794425    0.000000  -10.313521    0.000000    0.000000   -0.265443    0.000000    0.000000    1.429083    0.000000    1.794425
 14Y     0.000000    1.053767    0.000000    0.000000    0.787562    0.000000    0.000000   -0.149139    0.000000    0.000000    0.787562    0.000000    0.000000    0.787562    0.000000    0.000000   -0.149139    0.000000    0.000000    0.787562    0.000000    0.000000    1.053767    0.000000    0.000000   -0.265443    0.000000    0.000000    1.429083    1.794425    0.000000    0.145634    0.000000   -1.794425    1.429083    0.000000    1.794425    1.429083    0.000000    0.000000  -10.313521    0.000000    0.000000    1.429083   -1.794425    0.000000   -0.265443    0.000000
 14Z     0.000000    0.000000    0.787562    0.000000    0.000000    0.787562    0.000000    0.000000   -0.149139    0.000000    0.000000    1.053767    0.000000    0.000000    1.053767    0.000000    0.000000   -0.149139    0.000000    0.000000    0.787562    0.000000    0.000000    0.787562   -1.794425    0.000000    1.429083    0.000000    1.794425    1.429083    0.000000    0.000000    0.145634    0.000000    0.000000   -0.265443    0.000000    0.000000   -0.265443    0.000000    0.000000  -10.313521    0.000000   -1.794425    1.429083    1.794425    0.000000    1.429083
 15X     0.787562    0.000000    0.000000   -0.149139    0.000000    0.000000    1.053767    0.000000    0.000000    0.787562    0.000000    0.000000    0.787562    0.000000    0.000000    1.053767    0.000000    0.000000   -0.149139    0.000000    0.000000    0.787562    0.000000    0.000000    1.429083   -1.794425    0.000000    0.145634    0.000000    0.000000   -0.265443    0.000000    0.000000    1.429083    0.000000   -1.794425    1.429083    0.000000    1.794425   -0.265443    0.000000    0.000000  -10.313521    0.000000    0.000000    1.429083    1.794425    0.000000
 15Y     0.000000    0.787562    0.000000    0.000000   -0.149139    0.000000    0.000000    0.787562    0.000000    0.000000    1.053767    0.000000    0.000000    1.053767    0.000000    0.000000    0.787562    0.000000    0.000000   -0.149139    0.000000    0.000000    0.787562    0.000000   -1.794425    1.429083    0.000000    0.000000    0.145634    0.000000    0.000000    1.429083    1.794425    0.000000   -0.265443    0.000000    0.000000   -0.265443    0.000000    0.000000    1.429083   -1.794425    0.000000  -10.313521    0.000000    1.794425    1.429083    0.000000
 15Z     0.000000    0.000000    1.053767    0.000000    0.000000   -0.149139    0.000000    0.000000    0.787562    0.000000    0.000000    0.787562    0.000000    0.000000    0.787562    0.000000    0.000000    0.787562    0.000000    0.000000   -0.149139    0.000000    0.000000    1.053767    0.000000    0.000000   -0.265443    0.000000    0.000000    0.145634    0.000000    1.794425    1.429083   -1.794425    0.000000    1.429083    1.794425    0.000000    1.429083    0.000000   -1.794425    1.429083    0.000000    0.000000  -10.313521    0.000000    0.000000   -0.265443
 16X    -0.149139    0.000000    0.000000    0.787562    0.000000    0.000000    0.787562    0.000000    0.000000    1.053767    0.000000    0.000000    1.053767    0.000000    0.000000    0.787562    0.000000    0.000000    0.787562    0.000000    0.000000   -0.149139    0.000000    0.000000    0.145634    0.000000    0.000000    1.429083   -1.794425    0.000000    1.429083    0.000000   -1.794425   -0.265443    0.000000    0.000000   -0.265443    0.000000    0.000000    1.429083    0.000000    1.794425    1.429083    1.794425    0.000000  -10.313521    0.000000    0.000000
 16Y     0.000000   -0.149139    0.000000    0.000000    0.787562    0.000000    0.000000    1.053767    0.000000    0.000000    0.787562    0.000000    0.000000    0.787562    0.000000    0.000000    1.053767    0.000000    0.000000    0.787562    0.000000    0.000000   -0.149139    0.000000    0.000000    0.145634    0.000000   -1.794425    1.429083    0.000000    0.000000   -0.265443    0.000000    0.000000    1.429083    1.794425    0.000000    1.429083   -1.794425    0.000000   -0.265443    0.000000    1.794425    1.429083    0.000000    0.000000  -10.313521    0.000000
 16Z     0.000000    0.000000   -0.149139    0.000000    0.000000    1.053767    0.000000    0.000000    0.787562    0.000000    0.000000    0.787562    0.000000    0.000000    0.787562    0.000000    0.000000    0.787562    0.000000    0.000000    1.053767    0.000000    0.000000   -0.149139    0.000000    0.000000    0.145634    0.000000    0.000000   -0.265443   -1.794425    0.000000    1.429083    0.000000    1.794425    1.429083    0.000000   -1.794425    1.429083    1.794425    0.000000    1.429083    0.000000    0.000000   -0.265443    0.000000    0.000000  -10.313521

 Eigenvectors and eigenvalues of the dynamical matrix

   1 f  =   16.413503 THz   103.129084 2PiTHz  547.495526 cm-1    67.880818 meV
             X         Y         Z           dx          dy          dz
      0.000000  0.000000  0.000000     0.000000    0.000000    0.000000
      2.106000  2.106000  0.000000     0.000000    0.000000    0.000000
      2.106000  0.000000  2.106000     0.000000    0.000000    0.000000
      4.212000  2.106000  2.106000     0.000000    0.000000    0.000000
      0.000000  2.106000  2.106000     0.000000    0.000000    0.000000
      2.106000  4.212000  2.106000     0.000000    0.000000    0.000000
      2.106000  2.106000  4.212000     0.000000    0.000000    0.000000
      4.212000  4.212000  4.212000     0.000000    0.000000    0.000000
      2.106000  2.106000  2.106000    -0.100698    0.016489   -0.000765
      4.212000  4.212000  2.106000    -0.016489    0.100698    0.395290
      4.212000  2.106000  4.212000     0.000765    0.395290    0.100698
      6.318000  4.212000  4.212000    -0.395290   -0.000765    0.016489
      2.106000  4.212000  4.212000     0.395290    0.000765   -0.016489
      4.212000  6.318000  4.212000    -0.000765   -0.395290   -0.100698
      4.212000  4.212000  6.318000     0.016489   -0.100698   -0.395290
      6.318000  6.318000  6.318000     0.100698   -0.016489    0.000765

[...]

  45 f  =    7.885595 THz    49.546652 2PiTHz  263.035116 cm-1    32.612210 meV
             X         Y         Z           dx          dy          dz
      0.000000  0.000000  0.000000     0.201332    0.030080    0.208099
      2.106000  2.106000  0.000000    -0.060685    0.240076    0.205947
      2.106000  0.000000  2.106000     0.378536   -0.335607   -0.038745
      4.212000  2.106000  2.106000    -0.129660    0.170437   -0.090765
      0.000000  2.106000  2.106000     0.129660   -0.170437    0.090765
      2.106000  4.212000  2.106000    -0.378536    0.335607    0.038745
      2.106000  2.106000  4.212000     0.060685   -0.240076   -0.205947
      4.212000  4.212000  4.212000    -0.201332   -0.030080   -0.208099
      2.106000  2.106000  2.106000     0.000000    0.000000    0.000000
      4.212000  4.212000  2.106000     0.000000    0.000000    0.000000
      4.212000  2.106000  4.212000     0.000000    0.000000    0.000000
      6.318000  4.212000  4.212000     0.000000    0.000000    0.000000
      2.106000  4.212000  4.212000     0.000000    0.000000    0.000000
      4.212000  6.318000  4.212000     0.000000    0.000000    0.000000
      4.212000  4.212000  6.318000     0.000000    0.000000    0.000000
      6.318000  6.318000  6.318000     0.000000    0.000000    0.000000

  46 f/i=    0.012664 THz     0.079572 2PiTHz    0.422435 cm-1     0.052375 meV
             X         Y         Z           dx          dy          dz
      0.000000  0.000000  0.000000    -0.068967    0.259854    0.056884
      2.106000  2.106000  0.000000    -0.068967    0.259854    0.056884
      2.106000  0.000000  2.106000    -0.068967    0.259854    0.056884
      4.212000  2.106000  2.106000    -0.068967    0.259854    0.056884
      0.000000  2.106000  2.106000    -0.068967    0.259854    0.056884
      2.106000  4.212000  2.106000    -0.068967    0.259854    0.056884
      2.106000  2.106000  4.212000    -0.068967    0.259854    0.056884
      4.212000  4.212000  4.212000    -0.068967    0.259854    0.056884
      2.106000  2.106000  2.106000    -0.055828    0.210349    0.046047
      4.212000  4.212000  2.106000    -0.055828    0.210349    0.046047
      4.212000  2.106000  4.212000    -0.055828    0.210349    0.046047
      6.318000  4.212000  4.212000    -0.055828    0.210349    0.046047
      2.106000  4.212000  4.212000    -0.055828    0.210349    0.046047
      4.212000  6.318000  4.212000    -0.055828    0.210349    0.046047
      4.212000  4.212000  6.318000    -0.055828    0.210349    0.046047
      6.318000  6.318000  6.318000    -0.055828    0.210349    0.046047

[...]

  48 f/i=    0.012664 THz     0.079572 2PiTHz    0.422435 cm-1     0.052375 meV
             X         Y         Z           dx          dy          dz
      0.000000  0.000000  0.000000     0.043288   -0.047018    0.267267
      2.106000  2.106000  0.000000     0.043288   -0.047018    0.267267
      2.106000  0.000000  2.106000     0.043288   -0.047018    0.267267
      4.212000  2.106000  2.106000     0.043288   -0.047018    0.267267
      0.000000  2.106000  2.106000     0.043288   -0.047018    0.267267
      2.106000  4.212000  2.106000     0.043288   -0.047018    0.267267
      2.106000  2.106000  4.212000     0.043288   -0.047018    0.267267
      4.212000  4.212000  4.212000     0.043288   -0.047018    0.267267
      2.106000  2.106000  2.106000     0.035041   -0.038060    0.216350
      4.212000  4.212000  2.106000     0.035041   -0.038060    0.216350
      4.212000  2.106000  4.212000     0.035041   -0.038060    0.216350
      6.318000  4.212000  4.212000     0.035041   -0.038060    0.216350
      2.106000  4.212000  4.212000     0.035041   -0.038060    0.216350
      4.212000  6.318000  4.212000     0.035041   -0.038060    0.216350
      4.212000  4.212000  6.318000     0.035041   -0.038060    0.216350
      6.318000  6.318000  6.318000     0.035041   -0.038060    0.216350

[...]

 A1 = (   0.0000000000,   4.2120000000,   4.2120000000)
 A2 = (   4.2120000000,   0.0000000000,   4.2120000000)
 A3 = (   4.2120000000,   4.2120000000,   0.0000000000)
 Subroutine PRICEL returns following result:

  LATTYP: Found a face centered cubic cell.
 ALAT       =     4.2120000000

  Lattice vectors:

 A1 = (   0.0000000000,   2.1060000000,   2.1060000000)
 A2 = (   2.1060000000,   0.0000000000,   2.1060000000)
 A3 = (   2.1060000000,   2.1060000000,   0.0000000000)

   8 primitive cells build up your supercell.

Analysis of symmetry for initial positions (statically):

 Routine SETGRP: Setting up the symmetry group for a
 face centered cubic supercell.

 Subroutine GETGRP returns: Found 48 space group operations
 (whereof 48 operations were pure point group operations)
 out of a pool of 48 trial point group operations.

The static configuration has the point symmetry O_h .

Analysis of symmetry for dynamics (positions and initial velocities):

 Subroutine DYNSYM returns: Found 48 space group operations
 (whereof 48 operations were pure point group operations)
 out of a pool of 48 trial space group operations
 (whereof 48 operations were pure point group operations)
 and found also     8 'primitive' translations

The dynamic configuration has the point symmetry O_h .

 KPOINTS: Magnesium Oxide

Automatic generation of k-mesh.

 Subroutine IBZKPT returns following result:

 Found      4 irreducible k-points:

 Following reciprocal coordinates:
            Coordinates               Weight
  0.000000  0.000000  0.000000      1.000000
  0.333333  0.000000  0.000000      8.000000
  0.333333  0.333333  0.000000      6.000000
 -0.333333  0.333333  0.000000     12.000000

 Following cartesian coordinates:
            Coordinates               Weight
  0.000000  0.000000  0.000000      1.000000
 -0.039569  0.039569  0.039569      8.000000
  0.000000  0.000000  0.079139      6.000000
  0.079139 -0.079139  0.000000     12.000000

 TETIRR: Found      7 inequivalent tetrahedra from      162
 writing wavefunctions
 BZINTS: Fermi energy:  4.731703; 64.000000 electrons
         Band energy: -45.944964;  BLOECHL correction:  0.000000