 vasp.5.2.12 26May11 complex
 executed on              unknown date 2013.05.12  12:57:20

 INCAR:
 POTCAR:   PAW Mg 02Mar1998
 POTCAR:   PAW O 31May2000
 POTCAR:   PAW Mg 02Mar1998
   VRHFIN =Mg: s2p0

   TITEL  = PAW Mg 02Mar1998
   POMASS =   24.305; ZVAL   =    2.000    mass and valenz
   ENMAX  =  210.674; ENMIN  =  158.006 eV
   QCUT   =   -3.935; QGAM   =    7.870    optimization parameters

   Description
     l     E      TYP  RCUT    TYP  RCUT
     0   .000     23  2.000
     0  2.000     23  2.000
     1   .000     23  2.000
     1  2.000     23  2.000
     2   .000     23  2.000

 POTCAR:   PAW O 31May2000
   VRHFIN =O: s2p4

   TITEL  = PAW O 31May2000
   POMASS =   16.000; ZVAL   =    6.000    mass and valenz
   ENMAX  =  400.000; ENMIN  =  300.000 eV
   QCUT   =   -5.518; QGAM   =   11.037    optimization parameters

   Description
     l     E      TYP  RCUT    TYP  RCUT
     0   .000     23  1.200
     0  -.700     23  1.200
     1   .000     23  1.520
     1   .600     23  1.520
     2   .000      7  1.500

 PAW Mg 02Mar1998                       :
 PAW O 31May2000                        :

 POSCAR: MgO-Born effective charge
  positions in direct lattice
  velocities in cartesian coordinates
 exchange correlation table for  LEXCH =        2
   RHO(1)=    0.500       N(1)  =     2000
   RHO(2)=  100.500       N(2)  =     4000

 ion  position               nearest neighbor table
   1  0.000  0.000  0.000-   2 2.11   2 2.11   2 2.11   2 2.11   2 2.11   2 2.11
   2  0.500  0.500  0.500-   1 2.11   1 2.11   1 2.11   1 2.11   1 2.11   1 2.11

  LATTYP: Found a face centered cubic cell.
 ALAT       =     4.2120000000

  Lattice vectors:

 A1 = (   0.0000000000,   2.1060000000,   2.1060000000)
 A2 = (   2.1060000000,   0.0000000000,   2.1060000000)
 A3 = (   2.1060000000,   2.1060000000,   0.0000000000)
 Subroutine PRICEL returns:
 Original cell was already a primitive cell.

Analysis of symmetry for initial positions (statically):

 Routine SETGRP: Setting up the symmetry group for a
 face centered cubic supercell.

 Subroutine GETGRP returns: Found 48 space group operations
 (whereof 48 operations were pure point group operations)
 out of a pool of 48 trial point group operations.

The static configuration has the point symmetry O_h .

Analysis of symmetry for dynamics (positions and initial velocities):

 Subroutine DYNSYM returns: Found 48 space group operations
 (whereof 48 operations were pure point group operations)
 out of a pool of 48 trial space group operations
 (whereof 48 operations were pure point group operations)
 and found also     1 'primitive' translations

The dynamic configuration has the point symmetry O_h .

 KPOINTS: Magnesium Oxide

Automatic generation of k-mesh.

 Subroutine IBZKPT returns following result:

 Found     35 irreducible k-points:

 Following reciprocal coordinates:
            Coordinates               Weight
  0.000000  0.000000  0.000000      1.000000
  0.111111  0.000000  0.000000      8.000000
  0.222222  0.000000  0.000000      8.000000
  0.333333  0.000000  0.000000      8.000000
  0.444444  0.000000  0.000000      8.000000
  0.111111  0.111111  0.000000      6.000000
  0.222222  0.111111  0.000000     24.000000
  0.333333  0.111111  0.000000     24.000000
  0.444444  0.111111  0.000000     24.000000
 -0.444444  0.111111  0.000000     24.000000
 -0.333333  0.111111  0.000000     24.000000
 -0.222222  0.111111  0.000000     24.000000
 -0.111111  0.111111  0.000000     12.000000
  0.222222  0.222222  0.000000      6.000000
  0.333333  0.222222  0.000000     24.000000
  0.444444  0.222222  0.000000     24.000000
 -0.444444  0.222222  0.000000     24.000000
 -0.333333  0.222222  0.000000     24.000000
 -0.222222  0.222222  0.000000     12.000000
  0.333333  0.333333  0.000000      6.000000
  0.444444  0.333333  0.000000     24.000000
 -0.444444  0.333333  0.000000     24.000000
 -0.333333  0.333333  0.000000     12.000000
  0.444444  0.444444  0.000000      6.000000
 -0.444444  0.444444  0.000000     12.000000
  0.333333  0.222222  0.111111     24.000000
  0.444444  0.222222  0.111111     48.000000
 -0.444444  0.222222  0.111111     48.000000
  0.444444  0.333333  0.111111     24.000000
 -0.444444  0.333333  0.111111     48.000000
 -0.333333  0.333333  0.111111     48.000000
 -0.222222  0.333333  0.111111     24.000000
 -0.444444  0.444444  0.111111     24.000000
 -0.333333  0.444444  0.111111     24.000000
 -0.333333  0.444444  0.222222     24.000000

 Following cartesian coordinates:
            Coordinates               Weight
  0.000000  0.000000  0.000000      1.000000
 -0.111111  0.111111  0.111111      8.000000
 -0.222222  0.222222  0.222222      8.000000
 -0.333333  0.333333  0.333333      8.000000
 -0.444444  0.444444  0.444444      8.000000
  0.000000  0.000000  0.222222      6.000000
 -0.111111  0.111111  0.333333     24.000000
 -0.222222  0.222222  0.444444     24.000000
 -0.333333  0.333333  0.555556     24.000000
  0.555556 -0.555556 -0.333333     24.000000
  0.444444 -0.444444 -0.222222     24.000000
  0.333333 -0.333333 -0.111111     24.000000
  0.222222 -0.222222  0.000000     12.000000
  0.000000  0.000000  0.444444      6.000000
 -0.111111  0.111111  0.555556     24.000000
 -0.222222  0.222222  0.666667     24.000000
  0.666667 -0.666667 -0.222222     24.000000
  0.555556 -0.555556 -0.111111     24.000000
  0.444444 -0.444444  0.000000     12.000000
  0.000000  0.000000  0.666667      6.000000
 -0.111111  0.111111  0.777778     24.000000
  0.777778 -0.777778 -0.111111     24.000000
  0.666667 -0.666667  0.000000     12.000000
  0.000000  0.000000  0.888889      6.000000
  0.888889 -0.888889  0.000000     12.000000
  0.000000  0.222222  0.444444     24.000000
 -0.111111  0.333333  0.555556     48.000000
  0.777778 -0.555556 -0.333333     48.000000
  0.000000  0.222222  0.666667     24.000000
  0.888889 -0.666667 -0.222222     48.000000
  0.777778 -0.555556 -0.111111     48.000000
  0.666667 -0.444444  0.000000     24.000000
  1.000000 -0.777778 -0.111111     24.000000
  0.888889 -0.666667  0.000000     24.000000
  1.000000 -0.555556 -0.111111     24.000000

 TETIRR: Found    115 inequivalent tetrahedra from     4374

 Subroutine IBZKPT_HF returns following result:

 Found    729 k-points in 1st BZ
 the following    729 k-points will be used (e.g. in the exchange kernel)
 Following reciprocal coordinates:   # in IRBZ
  0.000000  0.000000  0.000000       1 t-inv F
  0.111111  0.000000  0.000000       2 t-inv F
  0.222222  0.000000  0.000000       3 t-inv F
  0.333333  0.000000  0.000000       4 t-inv F
  0.444444  0.000000  0.000000       5 t-inv F
  0.111111  0.111111  0.000000       6 t-inv F
  0.222222  0.111111  0.000000       7 t-inv F
  0.333333  0.111111  0.000000       8 t-inv F
  0.444444  0.111111  0.000000       9 t-inv F
 -0.444444  0.111111  0.000000      10 t-inv F
 -0.333333  0.111111  0.000000      11 t-inv F
 -0.222222  0.111111  0.000000      12 t-inv F
 -0.111111  0.111111  0.000000      13 t-inv F
  0.222222  0.222222  0.000000      14 t-inv F
  0.333333  0.222222  0.000000      15 t-inv F
  0.444444  0.222222  0.000000      16 t-inv F
 -0.444444  0.222222  0.000000      17 t-inv F
 -0.333333  0.222222  0.000000      18 t-inv F
 -0.222222  0.222222  0.000000      19 t-inv F
  0.333333  0.333333  0.000000      20 t-inv F
  0.444444  0.333333  0.000000      21 t-inv F
 -0.444444  0.333333  0.000000      22 t-inv F
 -0.333333  0.333333  0.000000      23 t-inv F
  0.444444  0.444444  0.000000      24 t-inv F
 -0.444444  0.444444  0.000000      25 t-inv F
  0.333333  0.222222  0.111111      26 t-inv F
  0.444444  0.222222  0.111111      27 t-inv F
 -0.444444  0.222222  0.111111      28 t-inv F
  0.444444  0.333333  0.111111      29 t-inv F
 -0.444444  0.333333  0.111111      30 t-inv F
 -0.333333  0.333333  0.111111      31 t-inv F
 -0.222222  0.333333  0.111111      32 t-inv F
 -0.444444  0.444444  0.111111      33 t-inv F
 -0.333333  0.444444  0.111111      34 t-inv F
 -0.333333  0.444444  0.222222      35 t-inv F
 -0.111111  0.000000  0.000000       2 t-inv F
  0.000000  0.111111  0.000000       2 t-inv F
  0.000000 -0.111111  0.000000       2 t-inv F
  0.000000  0.000000  0.111111       2 t-inv F
  0.000000  0.000000 -0.111111       2 t-inv F
  0.111111  0.111111  0.111111       2 t-inv F
 -0.111111 -0.111111 -0.111111       2 t-inv F
 -0.222222  0.000000  0.000000       3 t-inv F
  0.000000  0.222222  0.000000       3 t-inv F
  0.000000 -0.222222  0.000000       3 t-inv F
  0.000000  0.000000  0.222222       3 t-inv F
  0.000000  0.000000 -0.222222       3 t-inv F
  0.222222  0.222222  0.222222       3 t-inv F
 -0.222222 -0.222222 -0.222222       3 t-inv F
 -0.333333  0.000000  0.000000       4 t-inv F
  0.000000  0.333333  0.000000       4 t-inv F
  0.000000 -0.333333  0.000000       4 t-inv F
  0.000000  0.000000  0.333333       4 t-inv F
  0.000000  0.000000 -0.333333       4 t-inv F
  0.333333  0.333333  0.333333       4 t-inv F
 -0.333333 -0.333333 -0.333333       4 t-inv F
 -0.444444  0.000000  0.000000       5 t-inv F
  0.000000  0.444444  0.000000       5 t-inv F
  0.000000 -0.444444  0.000000       5 t-inv F
  0.000000  0.000000  0.444444       5 t-inv F
[...]
  0.333333  0.777778  0.555556      35 t-inv F
  0.222222  0.555556 -0.222222      35 t-inv F
 -0.222222 -0.555556  0.222222      35 t-inv F
  0.222222 -0.555556 -0.222222      35 t-inv F
 -0.222222  0.555556  0.222222      35 t-inv F
 -0.777778 -0.222222 -0.444444      35 t-inv F
  0.777778  0.222222  0.444444      35 t-inv F
 -0.555556 -0.333333 -0.777778      35 t-inv F
  0.555556  0.333333  0.777778      35 t-inv F
 -0.222222  0.222222  0.555556      35 t-inv F
  0.222222 -0.222222 -0.555556      35 t-inv F
 -0.444444 -0.777778 -0.222222      35 t-inv F
  0.444444  0.777778  0.222222      35 t-inv F
 -0.777778 -0.555556 -0.333333      35 t-inv F
  0.777778  0.555556  0.333333      35 t-inv F

 I would recommend the setting:
   dimension x,y,z NGX =    22 NGY =   22 NGZ =   22
 SYSTEM =  unknown system
 POSCAR =  MgO-Born effective charge

 Startparameter for this run:
   NWRITE =      2    write-flag & timer
   PREC   = h         normal or accurate (medium, high low for compatibility)
   ISTART =      0    job   : 0-new  1-cont  2-samecut
   ICHARG =      2    charge: 1-file 2-atom 10-const
   ISPIN  =      1    spin polarized calculation?
   LNONCOLLINEAR =      F non collinear calculations
   LSORBIT =      F    spin-orbit coupling
   INIWAV =      1    electr: 0-lowe 1-rand  2-diag
   LASPH  =      F    aspherical Exc in radial PAW
   METAGGA=      F    non-selfconsistent MetaGGA calc.

 Electronic Relaxation 1
   ENCUT  =  500.0 eV  36.75 Ry    6.06 a.u.   5.43  5.43  5.43*2*pi/ulx,y,z
   ENINI  =  500.0     initial cutoff
   ENAUG  =  605.4 eV  augmentation charge cutoff
   NELM   =     60;   NELMIN=  2; NELMDL= -5     # of ELM steps
   EDIFF  = 0.1E-05   stopping-criterion for ELM
   LREAL  =      F    real-space projection
   LCOMPAT=      F    compatible to vasp.4.4
   GGA_COMPAT  = T    GGA compatible to vasp.4.4-vasp.4.6
   LMAXPAW     = -100 max onsite density
   LMAXMIX     =    2 max onsite mixed and CHGCAR
[...]
   0.22222222  0.00000000  0.00000000       0.011
   0.33333333  0.00000000  0.00000000       0.011
   0.44444444  0.00000000  0.00000000       0.011
   0.11111111  0.11111111  0.00000000       0.008
   0.22222222  0.11111111  0.00000000       0.033
   0.33333333  0.11111111  0.00000000       0.033
   0.44444444  0.11111111  0.00000000       0.033
  -0.44444444  0.11111111  0.00000000       0.033
  -0.33333333  0.11111111  0.00000000       0.033
  -0.22222222  0.11111111  0.00000000       0.033
  -0.11111111  0.11111111  0.00000000       0.016
   0.22222222  0.22222222  0.00000000       0.008
   0.33333333  0.22222222  0.00000000       0.033
   0.44444444  0.22222222  0.00000000       0.033
  -0.44444444  0.22222222  0.00000000       0.033
  -0.33333333  0.22222222  0.00000000       0.033
  -0.22222222  0.22222222  0.00000000       0.016
   0.33333333  0.33333333  0.00000000       0.008
   0.44444444  0.33333333  0.00000000       0.033
  -0.44444444  0.33333333  0.00000000       0.033
  -0.33333333  0.33333333  0.00000000       0.016
   0.44444444  0.44444444  0.00000000       0.008
  -0.44444444  0.44444444  0.00000000       0.016
   0.33333333  0.22222222  0.11111111       0.033
   0.44444444  0.22222222  0.11111111       0.066
  -0.44444444  0.22222222  0.11111111       0.066
   0.44444444  0.33333333  0.11111111       0.033
  -0.44444444  0.33333333  0.11111111       0.066
  -0.33333333  0.33333333  0.11111111       0.066
  -0.22222222  0.33333333  0.11111111       0.033
  -0.44444444  0.44444444  0.11111111       0.033
  -0.33333333  0.44444444  0.11111111       0.033
  -0.33333333  0.44444444  0.22222222       0.033

 position of ions in fractional coordinates (direct lattice)
   0.00000000  0.00000000  0.00000000
   0.50000000  0.50000000  0.50000000

 position of ions in cartesian coordinates  (Angst):
   0.00000000  0.00000000  0.00000000
   2.10600000  2.10600000  2.10600000

 k-point  1 :  0.00000.00000.0000  plane waves:     459
 k-point  2 :  0.11110.00000.0000  plane waves:     495
 k-point  3 :  0.22220.00000.0000  plane waves:     483
 k-point  4 :  0.33330.00000.0000  plane waves:     474
 k-point  5 :  0.44440.00000.0000  plane waves:     470
 k-point  6 :  0.11110.11110.0000  plane waves:     495
 k-point  7 :  0.22220.11110.0000  plane waves:     484
 k-point  8 :  0.33330.11110.0000  plane waves:     481
 k-point  9 :  0.44440.11110.0000  plane waves:     470
 k-point 10 :  -.44440.11110.0000  plane waves:     470
 k-point 11 :  -.33330.11110.0000  plane waves:     470
 k-point 12 :  -.22220.11110.0000  plane waves:     481
 k-point 13 :  -.11110.11110.0000  plane waves:     485
 k-point 14 :  0.22220.22220.0000  plane waves:     480
 k-point 15 :  0.33330.22220.0000  plane waves:     470
 k-point 16 :  0.44440.22220.0000  plane waves:     471
 k-point 17 :  -.44440.22220.0000  plane waves:     467
 k-point 18 :  -.33330.22220.0000  plane waves:     476
 k-point 19 :  -.22220.22220.0000  plane waves:     479
 k-point 20 :  0.33330.33330.0000  plane waves:     472
 k-point 21 :  0.44440.33330.0000  plane waves:     469
 k-point 22 :  -.44440.33330.0000  plane waves:     472
 k-point 23 :  -.33330.33330.0000  plane waves:     466
 k-point 24 :  0.44440.44440.0000  plane waves:     468
 k-point 25 :  -.44440.44440.0000  plane waves:     470
 k-point 26 :  0.33330.22220.1111  plane waves:     479
 k-point 27 :  0.44440.22220.1111  plane waves:     476
 k-point 28 :  -.44440.22220.1111  plane waves:     474
 k-point 29 :  0.44440.33330.1111  plane waves:     472
 k-point 30 :  -.44440.33330.1111  plane waves:     472
 k-point 31 :  -.33330.33330.1111  plane waves:     473
 k-point 32 :  -.22220.33330.1111  plane waves:     473
 k-point 33 :  -.44440.44440.1111  plane waves:     469
 k-point 34 :  -.33330.44440.1111  plane waves:     477
 k-point 35 :  -.33330.44440.2222  plane waves:     472

 maximum and minimum number of plane-waves per node :       495      459

 maximum number of plane-waves:       495
 maximum index in each direction:
   IXMAX=    5   IYMAX=    5   IZMAX=    5
   IXMIN=   -5   IYMIN=   -5   IZMIN=   -5

 NGX is ok and might be reduce to  22
 NGY is ok and might be reduce to  22
 NGZ is ok and might be reduce to  22

 serial   3D FFT for wavefunctions
 parallel 3D FFT for charge:
    minimum data exchange during FFTs selected (reduces bandwidth)

 Broyden mixing: mesh for mixing (old mesh)
   NGX = 11   NGY = 11   NGZ = 11
  (NGX  = 32   NGY  = 32   NGZ  = 32)
  gives a total of   1331 points

 initial charge density was supplied:
 charge density of overlapping atoms calculated
 number of electron       8.0000000 magnetization
 keeping initial charge density in first step

 Maximum index for augmentation-charges          1129 (set IRDMAX)

 First call to EWALD:  gamma=   0.668
 Maximum number of real-space cells 3x 3x 3
 Maximum number of reciprocal cells 3x 3x 3

----------------------------------------- Iteration    1(   1)  ---------------------------------------

 BZINTS: Fermi energy: 13.642424;  8.000000 electrons
         Band energy:  -0.595733;  BLOECHL correction: -0.065700

 eigenvalue-minimisations  :   672
 total energy-change (2. order) : 0.9551891E+01  (-0.4500520E+03)
 number of electron       8.0000000 magnetization
 augmentation part        8.0000000 magnetization

 Free energy of the ion-electron system (eV)
  alpha Z        PSCENC =         4.16166101
  Ewald energy   TEWEN  =      -358.19654049
  -1/2 Hartree   DENC   =      -120.10072346
  -exchange  EXHF       =         0.00000000
  -V(xc)+E(xc)   XCENC  =        20.77497527
  PAW double counting   =       257.02161424     -248.12242250
  entropy T*S    EENTRO =         0.00000000
  eigenvalues    EBANDS =        -0.59573277
  atomic energy  EATOM  =       454.60906019
  free energy    TOTEN  =         9.55189147 eV

  energy without entropy =        9.55189147  energy(sigma->0) =        9.55189147

 E-fermi :  13.6424     XC(G=0): -11.4131     alpha+bet :-14.9973

 k-point   1 :       0.0000    0.0000    0.0000
  band No.  band energies     occupation
      1     -14.1500      2.00000
      2       6.0549      2.00000
      3       8.7004      2.00000
      4      10.0149      2.00000
      5      18.1434      0.00000
      6      22.1705      0.00000
      7      25.2695      0.00000
      8      27.9619      0.00000

[...]

 eigenvalue-minimisations  :   712
 total energy-change (2. order) :-0.2409473E+02  (-0.2397839E+02)
 number of electron       8.0000000 magnetization
 augmentation part        8.0000000 magnetization

[...]

 eigenvalue-minimisations  :   776
 total energy-change (2. order) :-0.1980533E-05  (-0.1980533E-05)
 number of electron       8.0000001 magnetization
 augmentation part        0.8236470 magnetization

 Broyden mixing:
  rms(total) = 0.70106E+00    rms(broyden)= 0.70091E+00
  rms(prec ) = 0.27417E+01
  weight for this iteration     100.00

[...]

 eigenvalues of (default mixing * dielectric matrix)
  average eigenvalue GAMMA=   0.8387
  0.8387

[...]

 BZINTS: Fermi energy:  4.829214;  8.000000 electrons
         Band energy:  -5.667483;  BLOECHL correction:  0.000000

 eigenvalue-minimisations  :   360
 total energy-change (2. order) : 0.4216290E-07  (-0.3235030E-07)
 number of electron       8.0000001 magnetization
 augmentation part        0.6857323 magnetization

 Free energy of the ion-electron system (eV)
  alpha Z        PSCENC =         4.16166101
  Ewald energy   TEWEN  =      -358.19654049
  -1/2 Hartree   DENC   =      -139.09161305
  -exchange  EXHF       =         0.00000000
  -V(xc)+E(xc)   XCENC  =        22.29951607
  PAW double counting   =       313.53648870     -304.94526151
  entropy T*S    EENTRO =         0.00000000
  eigenvalues    EBANDS =        -5.66748313
  atomic energy  EATOM  =       454.60906019
  free energy    TOTEN  =       -13.29417223 eV

  energy without entropy =      -13.29417223  energy(sigma->0) =      -13.29417223

 average (electrostatic) potential at core
  the test charge radii are     1.0714  0.7215
  (the norm of the test charge is              1.0000)
       1 -50.7997       2 -68.9120

 E-fermi :   4.8292     XC(G=0): -11.1309     alpha+bet :-14.9973

[...]

 k-point  35 :      -0.3333    0.4444    0.2222
  band No.  band energies     occupation
      1     -10.6205      2.00000
      2       1.3988      2.00000
      3       2.0048      2.00000
      4       3.0798      2.00000
      5      15.8609      0.00000
      6      16.1166      0.00000
      7      16.7360      0.00000
      8      20.3319      0.00000

 soft charge-density along one line, spin component            1
         0         1         2         3         4         5         6         7         8         9
 total charge-density along one line

------------------------ aborting loop because EDIFF is reached ----------------------------------------

 VOLUME and BASIS-vectors are now :
  energy-cutoff  :      500.00
  volume of cell :       18.68
      direct lattice vectors                 reciprocal lattice vectors
     0.000000000  2.106000000  2.106000000    -0.237416904  0.237416904  0.237416904
     2.106000000  0.000000000  2.106000000     0.237416904 -0.237416904  0.237416904
     2.106000000  2.106000000  0.000000000     0.237416904  0.237416904 -0.237416904

  length of vectors
     2.978333762  2.978333762  2.978333762     0.411218140  0.411218140  0.411218140

 FORCES acting on ions
    electron-ion (+dipol)            ewald-force                    non-local-force                 convergence-correction
   0.610E-15 0.353E-15 0.208E-15   0.372E-15 -.939E-15 -.122E-14   0.000E+00 0.000E+00 0.000E+00   0.170E-16 -.177E-16 -.460E-16
   0.760E-12 0.371E-12 0.551E-12   -.481E-15 0.144E-14 0.201E-14   0.000E+00 0.000E+00 0.000E+00   -.156E-13 -.801E-15 0.339E-14
   0.761E-12 0.372E-12 0.551E-12   -.109E-15 0.501E-15 0.786E-15   0.000E+00 0.000E+00 0.000E+00   -.156E-13 -.819E-15 0.334E-14

 POSITION                                       TOTAL-FORCE (eV/Angst)
      0.00000      0.00000      0.00000         0.000000      0.000000      0.000000
      2.10600      2.10600      2.10600         0.000000      0.000000      0.000000
    total drift:                                0.000000      0.000000      0.000000

  FREE ENERGIE OF THE ION-ELECTRON SYSTEM (eV)
  free  energy   TOTEN  =       -13.294172 eV

  energy  without entropy=      -13.294172  energy(sigma->0) =      -13.294172

 Linear response reoptimize wavefunctions
 Linear response G [H, r] |phi>, progress :
  Direction:   1

[...]

  free energy    TOTEN  =       -32.19559706 eV

[...]

 Linear response G [H, r] |phi>, progress :
  Direction:   2

[...]

 Linear response G [H, r] |phi>, progress :
  Direction:   3

[...]

  free energy    TOTEN  =       -25.57777482 eV

[...]

 Linear response to external field (no local field effect), progress :
  Direction:   1
  LATTYP: Found a face centered cubic cell.
 ALAT       =     4.2120000000

[...]

The dynamic configuration has the point symmetry C_4v.

[...]

 Free energy of the ion-electron system (eV)
  -1/2 Hartree   DENC   =         0.00000000
  -V(xc)+E(xc)   XCENC  =         0.00000000
  PAW double counting   =         0.00000000        0.00000000
  entropy T*S    EENTRO =         0.00000000
  eigenvalues    EBANDS =        -0.13140091
  free energy    TOTEN  =        -0.13140091 eV

  energy without entropy =       -0.13140091

[...]

 change of polarisation eV/A/(eV/A) component  1 :     0.267     0.086     0.025
 dielectric tensor                  component  1 :     3.590     0.836     0.244

[...]

 Linear response to external field (no local field effect), progress :
  Direction:   3
  LATTYP: Found a face centered cubic cell.
 ALAT       =     4.2120000000

[...]

 HEAD OF MICROSCOPIC STATIC DIELECTRIC TENSOR (independent particle, excluding Hartree and local field effects)
           3.264     0.000     0.000
           0.000     3.264     0.000
           0.000     0.000     3.264

 Linear response to external field, progress :
  Direction:   1
  LATTYP: Found a face centered cubic cell.
 ALAT       =     4.2120000000

[...]

      POSITION         DIRECTION 1           BORN EFFECTIVE CHARGE    (rigid.aug.   ionic)
      0.00000      0.00000      0.00000     1.96085  0.00000  0.00000 ( -0.01219  2.00000)
      2.10600      2.10600      2.10600    -1.96142  0.00000  0.00000 ( -0.67352  6.00000)
    total drift (improves with k-points):  -0.00056  0.00000  0.00000

[...]

 Linear response to external field, progress :
  Direction:   3
  LATTYP: Found a face centered cubic cell.
 ALAT       =     4.2120000000

[...]

The dynamic configuration has the point symmetry C_4v.

[...]

----------------------------------------- Iteration    3(   9)  ---------------------------------------

 Broyden mixing:
  rms(total) = 0.34471E-05    rms(broyden)= 0.34468E-05
  rms(prec ) = 0.86148E-05
  weight for this iteration     100.00

 eigenvalues of (default mixing * dielectric matrix)
  average eigenvalue GAMMA=   1.8150
  2.6587  2.6587  2.3329  1.9189  1.1897  0.9733  0.9733

 Free energy of the ion-electron system (eV)
  -1/2 Hartree   DENC   =        -0.01296031
  -V(xc)+E(xc)   XCENC  =         0.00017016
  PAW double counting   =         0.00704479       -0.00702693
  entropy T*S    EENTRO =         0.00000000
  eigenvalues    EBANDS =        -0.10579957
  free energy    TOTEN  =        -0.11857186 eV

  energy without entropy =       -0.11857186

------------------------ aborting loop because EDIFF is reached ----------------------------------------

 change of polarisation eV/A/(eV/A) component  3 :     0.057    -0.041     0.222
 dielectric tensor                  component  3 :     0.554    -0.395     3.147

      POSITION         DIRECTION 3           BORN EFFECTIVE CHARGE    (rigid.aug.   ionic)
      0.00000      0.00000      0.00000     0.00000  0.00000  1.96085 ( -0.01219  2.00000)
      2.10600      2.10600      2.10600     0.00000  0.00000 -1.96141 ( -0.67352  6.00000)
    total drift (improves with k-points):   0.00000  0.00000 -0.00056

[...]

 MACROSCOPIC STATIC DIELECTRIC TENSOR (including local field effects in DFT)
           3.147     0.000     0.000
           0.000     3.147     0.000
           0.000     0.000     3.147

  LATTYP: Found a face centered cubic cell.
 ALAT       =     4.2120000000

  Lattice vectors:

 A1 = (   0.0000000000,   2.1060000000,   2.1060000000)
 A2 = (   2.1060000000,   0.0000000000,   2.1060000000)
 A3 = (   2.1060000000,   2.1060000000,   0.0000000000)
 Subroutine PRICEL returns:
 Original cell was already a primitive cell.

Analysis of symmetry for initial positions (statically):

 Routine SETGRP: Setting up the symmetry group for a
 face centered cubic supercell.

 Subroutine GETGRP returns: Found 48 space group operations
 (whereof 48 operations were pure point group operations)
 out of a pool of 48 trial point group operations.

The static configuration has the point symmetry O_h .

Analysis of symmetry for dynamics (positions and initial velocities):

 Subroutine DYNSYM returns: Found 48 space group operations
 (whereof 48 operations were pure point group operations)
 out of a pool of 48 trial space group operations
 (whereof 48 operations were pure point group operations)
 and found also     1 'primitive' translations

The dynamic configuration has the point symmetry O_h .

 MACROSCOPIC STATIC DIELECTRIC TENSOR (including local field effects in DFT)
           3.147     0.000     0.000
           0.000     3.147     0.000
           0.000     0.000     3.147

 PIEZOELECTRIC TENSOR  for field in x, y, z        (e  Angst)
          XX          YY          ZZ          XY          YZ          ZX
  x     0.00000     0.00000     0.00000     0.00000     0.00000     0.00000
  y     0.00000     0.00000     0.00000     0.00000     0.00000     0.00000
  z     0.00000     0.00000     0.00000     0.00000     0.00000     0.00000

 PIEZOELECTRIC TENSOR  for field in x, y, z        (C/m^2)
          XX          YY          ZZ          XY          YZ          ZX
  x     0.00000     0.00000     0.00000     0.00000     0.00000     0.00000
  y     0.00000     0.00000     0.00000     0.00000     0.00000     0.00000
  z     0.00000     0.00000     0.00000     0.00000     0.00000     0.00000

 BORN EFFECTIVE CHARGES (in e, cummulative output)
 ion    1
    1     1.96085     0.00000     0.00000
    2     0.00000     1.96085     0.00000
    3     0.00000     0.00000     1.96085
 ion    2
    1    -1.96142     0.00000     0.00000
    2     0.00000    -1.96141     0.00000
    3     0.00000     0.00000    -1.96141

 writing wavefunctions
 BZINTS: Fermi energy:  4.829276;  8.000000 electrons
         Band energy:  -5.666749;  BLOECHL correction:  0.000000